; Copyright (c) 2026 The RIINA Authors. All rights reserved.
; Copyright (c) 2026 The RIINA Authors.
; Auto-generated from 02_FORMAL/coq/Industries/IndustryTelecom.v (24 assertions)
; Generated by scripts/generate-full-stack.py
; Module: IndustryTelecom

(set-logic ALL)
(set-option :produce-models true)

; TelecomDomain (matches Coq: Inductive TelecomDomain)
(declare-datatypes ((TelecomDomain 0)) (((RAN) (Core) (Transport) (Service) (Management) (AMF) (SMF) (UPF) (AUSF) (UDM))))

; TelecomEffect (matches Coq: Inductive TelecomEffect)
(declare-datatypes ((TelecomEffect 0)) (((SignalingIO) (UserPlaneIO) (SubscriberData) (NetworkConfig) (BillingRecord))))

; Security_5G (matches Coq: Record Security_5G)
(declare-datatypes ((Security_5G 0))
  (((mk-security_5_g (primary_authentication Bool) (nas_security Bool) (as_security Bool) (user_plane_integrity Bool) (service_based_security Bool) (network_slicing_isolation Bool)))))

; NetworkSlice (matches Coq: Record NetworkSlice)
(declare-datatypes ((NetworkSlice 0))
  (((mk-network_slice (slice_id Int) (slice_domain TelecomDomain) (slice_encrypted Bool) (slice_isolated Bool) (slice_sla_latency_ms Int)))))

; LawfulIntercept (matches Coq: Record LawfulIntercept)
(declare-datatypes ((LawfulIntercept 0))
  (((mk-lawful_intercept (li_target Int) (li_warrant_id Int) (li_authorized Bool) (li_logged Bool)))))

; domain_to_nat (matches Coq: Definition domain_to_nat)
(define-fun domain_to_nat ((d TelecomDomain)) Int
  true)

; domain_criticality (matches Coq: Definition domain_criticality)
(define-fun domain_criticality ((d TelecomDomain)) Int
  true)

; is_auth_function (matches Coq: Definition is_auth_function)
(define-fun is_auth_function ((nf NetworkFunction)) Bool
  true)

; security_5g_all (matches Coq: Definition security_5g_all)
(define-fun security_5g_all ((s Security_5G)) Bool
  (and (primary_authentication s) (nas_security s) (as_security s) (user_plane_integrity s) (service_based_security s) (network_slicing_isolation s)))

; slices_isolated (matches Coq: Definition slices_isolated)
(define-fun slices_isolated () Bool true)

; latency_acceptable (matches Coq: Definition latency_acceptable)
(define-fun latency_acceptable ((s NetworkSlice) (max_latency Int)) Bool
  Nat)

; supi_concealed (matches Coq: Definition supi_concealed)
(define-fun supi_concealed ((encrypted Bool) (domain TelecomDomain)) Bool
  true)

; key_derivation_depth (matches Coq: Definition key_derivation_depth)
(define-fun key_derivation_depth ((domain TelecomDomain)) Int
  true)

; roaming_security_level (matches Coq: Definition roaming_security_level)
(define-fun roaming_security_level () Int Nat)

; li_valid (matches Coq: Definition li_valid)
(define-fun li_valid ((li LawfulIntercept)) Bool
  (and (li_authorized li) (li_logged li)))

; security_5g_compliance (matches Coq: Theorem security_5g_compliance)
(assert (= true true)) ; security_5g_compliance [untranslatable]

; gsma_security (matches Coq: Theorem gsma_security)
(assert (= true true)) ; gsma_security [untranslatable]

; slice_isolation (matches Coq: Theorem slice_isolation)
(assert (= true true)) ; slice_isolation [untranslatable]

; signaling_security (matches Coq: Theorem signaling_security)
(assert (= true true)) ; signaling_security [untranslatable]

; nfv_security (matches Coq: Theorem nfv_security)
(assert (= true true)) ; nfv_security [untranslatable]

; integrity_mandatory_5g (matches Coq: Theorem integrity_mandatory_5g)
(assert (= true true)) ; integrity_mandatory_5g [untranslatable]

; up_integrity_available (matches Coq: Theorem up_integrity_available)
(assert (= true true)) ; up_integrity_available [untranslatable]

; core_most_critical (matches Coq: Theorem core_most_critical)
(assert (= true true)) ; core_most_critical [untranslatable]

; domain_criticality_positive (matches Coq: Theorem domain_criticality_positive)
(assert (= true true)) ; domain_criticality_positive [untranslatable]

; ausf_is_auth (matches Coq: Theorem ausf_is_auth)
(assert (= (is_auth_function AUSF) true)) ; ausf_is_auth

; amf_not_auth (matches Coq: Theorem amf_not_auth)
(assert (= (is_auth_function AMF) false)) ; amf_not_auth

; all_sec_requires_auth (matches Coq: Theorem all_sec_requires_auth)
(assert (= true true)) ; all_sec_requires_auth [untranslatable]

; all_sec_requires_nas (matches Coq: Theorem all_sec_requires_nas)
(assert (= true true)) ; all_sec_requires_nas [untranslatable]

; all_sec_requires_slicing (matches Coq: Theorem all_sec_requires_slicing)
(assert (= true true)) ; all_sec_requires_slicing [untranslatable]

; same_slice_not_isolated (matches Coq: Theorem same_slice_not_isolated)
(assert (= true true)) ; same_slice_not_isolated [untranslatable]

; latency_bounded (matches Coq: Theorem latency_bounded)
(assert (= true true)) ; latency_bounded [untranslatable]

; supi_always_concealed_in_core (matches Coq: Theorem supi_always_concealed_in_core)
(assert (= true true)) ; supi_always_concealed_in_core [untranslatable]

; supi_concealed_ran_requires_encryption (matches Coq: Theorem supi_concealed_ran_requires_encryption)
(assert (= (supi_concealed false RAN) false)) ; supi_concealed_ran_requires_encryption

; supi_concealed_ran_with_encryption (matches Coq: Theorem supi_concealed_ran_with_encryption)
(assert (= (supi_concealed true RAN) true)) ; supi_concealed_ran_with_encryption

; ran_deepest_key_hierarchy (matches Coq: Theorem ran_deepest_key_hierarchy)
(assert (= true true)) ; ran_deepest_key_hierarchy [untranslatable]

; roaming_no_upgrade (matches Coq: Theorem roaming_no_upgrade)
(assert (= true true)) ; roaming_no_upgrade [untranslatable]

; roaming_bounded_by_visited (matches Coq: Theorem roaming_bounded_by_visited)
(assert (= true true)) ; roaming_bounded_by_visited [untranslatable]

; li_requires_authorization (matches Coq: Theorem li_requires_authorization)
(assert (= true true)) ; li_requires_authorization [untranslatable]

; li_requires_logging (matches Coq: Theorem li_requires_logging)
(assert (= true true)) ; li_requires_logging [untranslatable]

; Verify all assertions are satisfiable
(check-sat)
(exit)
